c FILE /home/rafael/Documents/HappySet/MIHS/inputs/happygen/output/graph_scale_free_k10_p0.5_v50_20241127_082520.txt
c SOURCE This is a scale-free graph formed for the happy graph colouring problem.
c DESCRIPTION It was generated using the problem generator of Rhyd Lewis
c
c GRAPH STATS
c Seed                             = 260438686
c Number of Nodes                  = 50
c Number of colours k              = 10
c Number of pre-assignments        = 25
c Number of links per new node     = 5
c Density                          = 0.191837
c 
c The degrees of nodes 1 to 50, respectively, are as follows 
c [27, 25, 22, 22, 20, 18, 16, 15, 13, 13, 13, 13, 11, 11, 10, 10, 9, 9, 9, 9, 8, 8, 7, 7, 7, 6, 
c  6, 6, 6, 6, 6, 6, 6, 6, 6, 6, 6, 6, 5, 5, 5, 5, 5, 5, 5, 5, 5, 5, 5, 5] 
c  
p edge 50 235 10
e 1 2
e 1 3
e 1 4
e 1 6
e 1 7
e 1 8
e 1 9
e 1 10
e 1 11
e 1 13
e 1 15
e 1 16
e 1 17
e 1 18
e 1 19
e 1 21
e 1 24
e 1 25
e 1 30
e 1 31
e 1 33
e 1 35
e 1 36
e 1 39
e 1 40
e 1 41
e 1 45
e 2 3
e 2 4
e 2 6
e 2 7
e 2 8
e 2 10
e 2 11
e 2 12
e 2 13
e 2 16
e 2 17
e 2 18
e 2 20
e 2 21
e 2 24
e 2 26
e 2 27
e 2 28
e 2 30
e 2 38
e 2 39
e 2 40
e 2 43
e 2 50
e 3 4
e 3 5
e 3 6
e 3 8
e 3 9
e 3 10
e 3 14
e 3 17
e 3 19
e 3 20
e 3 22
e 3 26
e 3 28
e 3 31
e 3 33
e 3 35
e 3 36
e 3 37
e 3 41
e 3 48
e 4 5
e 4 6
e 4 7
e 4 8
e 4 9
e 4 15
e 4 17
e 4 23
e 4 25
e 4 27
e 4 28
e 4 29
e 4 30
e 4 33
e 4 34
e 4 35
e 4 38
e 4 39
e 4 40
e 5 6
e 5 8
e 5 9
e 5 10
e 5 11
e 5 12
e 5 13
e 5 14
e 5 15
e 5 16
e 5 20
e 5 23
e 5 31
e 5 38
e 5 39
e 5 40
e 5 41
e 5 46
e 6 7
e 6 9
e 6 12
e 6 18
e 6 23
e 6 26
e 6 31
e 6 35
e 6 41
e 6 44
e 6 45
e 6 47
e 6 50
e 7 8
e 7 11
e 7 16
e 7 17
e 7 22
e 7 26
e 7 27
e 7 30
e 7 34
e 7 40
e 7 46
e 7 49
e 8 9
e 8 10
e 8 13
e 8 15
e 8 17
e 8 19
e 8 27
e 8 29
e 8 46
e 9 12
e 9 18
e 9 22
e 9 24
e 9 32
e 9 36
e 9 50
e 10 11
e 10 12
e 10 18
e 10 25
e 10 30
e 10 31
e 10 37
e 10 48
e 11 13
e 11 14
e 11 19
e 11 20
e 11 23
e 11 24
e 11 26
e 11 29
e 12 14
e 12 15
e 12 20
e 12 22
e 12 28
e 12 32
e 12 42
e 12 50
e 13 22
e 13 24
e 13 41
e 13 43
e 13 45
e 13 46
e 14 21
e 14 24
e 14 28
e 14 29
e 14 42
e 14 43
e 14 47
e 15 21
e 15 25
e 15 36
e 15 44
e 15 48
e 16 17
e 16 25
e 16 33
e 16 37
e 16 43
e 16 44
e 17 32
e 17 33
e 18 23
e 18 27
e 18 39
e 18 49
e 19 23
e 19 32
e 19 34
e 19 42
e 19 49
e 20 21
e 20 42
e 20 43
e 20 44
e 21 36
e 21 37
e 21 44
e 22 34
e 22 35
e 22 46
e 23 34
e 24 49
e 25 47
e 25 48
e 26 42
e 27 47
e 28 29
e 29 37
e 30 32
e 31 45
e 32 47
e 33 45
e 34 48
e 35 50
e 36 38
e 37 38
e 38 49
n 9 6
n 16 2
n 17 2
n 20 5
n 21 5
n 23 4
n 26 5
n 27 8
n 28 1
n 29 1
n 30 7
n 31 9
n 33 2
n 34 4
n 35 6
n 38 3
n 39 8
n 40 10
n 41 6
n 42 5
n 46 7
n 47 8
n 48 4
n 49 3
n 50 6
